%mem=60000MB
#P opt wb97xd/6-311g(d,p) nosymm  density=current output=wfx pop=NO

Title Card Required

0  1
xyz coordinate

molecule.wfx

